c defined variables: 33 34 35 36 37 38 39 40 41 42 43 44 45 46 47 48 49 50 51 52 53 54 55 56 57 58 59 60 61 62 63 64 65 66 67 68 69 70 71 72 73 74 75 76 77 78 79 80 81 82 83 84 85 86 87 88 89 90 91 92 93 94 95 96 97 98 99 100 101 102 103 104 105 106 107 108 109 110 111 112 113 114 115 116 117 118 119 120 121 122 123 124 125 126 127 128 129 130 131 132 133 134 135 136 137 138 139 140 141 142 143 144 145 146 147 148 149 150 151 152 153 154 155 156 157 158 159 160 161 162 163 164 165 166 167 195 196 197 198 199 200 201 202 203 207 209 210 211 212 213 214 215 216 217 218 219 220 221 222 223 224 225 226 227 228 229 230 231 232 233 234 235 236 237 238 239 240 241 242 243 244 245 246 247 248 249 250 251 252 253 254 255 256 257 258 259 260 261 262 263 264 265 266 267 268 269 270 272 273 274 275 276 277 278 279 280 281 282 283 284 285 286 287 288 289 290 291 292 293 294 295 296 297 298 299 300 301 302 303 304 305 306 307 308 309 310 311 312 313 314 315 316 317 318 320 321 322 323 324 325 
p cnf 1433 2161
a 1 2 3 4 5 6 7 8 9 10 11 12 13 14 15 16 17 18 19 20 21 22 23 24 25 26 27 28 29 30 31 32 175 176 177 178 179 180 181 182 183 184 185 186 187 188 189 190 191 192 0
e 33 34 35 36 37 38 39 40 41 42 43 44 45 46 47 48 49 50 51 52 53 54 55 56 57 58 59 60 61 62 63 64 65 66 67 68 69 70 71 72 73 74 75 76 77 78 79 80 81 82 83 84 85 86 87 88 89 90 91 92 93 94 95 96 97 98 99 100 101 102 103 104 105 106 107 108 109 110 111 112 113 114 115 116 117 118 119 120 121 122 123 124 125 126 127 128 129 130 131 132 133 134 135 136 137 138 139 140 141 142 143 144 145 146 147 148 149 150 151 152 153 154 155 156 157 158 159 160 161 162 163 164 165 166 167 195 196 197 198 199 200 201 202 203 207 209 210 211 212 213 214 215 216 217 218 219 220 221 222 223 224 225 226 227 228 229 230 231 232 233 234 235 236 237 238 239 240 241 242 243 244 245 246 247 248 249 250 251 252 253 254 255 256 257 258 259 260 261 262 263 264 265 266 267 268 269 270 272 273 274 275 276 277 278 279 280 281 282 283 284 285 286 287 288 289 290 291 292 293 294 295 296 297 298 299 300 301 302 303 304 305 306 307 308 309 310 311 312 313 314 315 316 317 318 320 321 322 323 324 325 1167 1168 1169 1170 1171 1172 1173 1174 1175 1176 1177 1178 1179 1180 1181 1182 1183 1184 1185 1186 1187 1188 1189 1190 1191 1192 1193 1194 1195 1196 1197 1198 1199 1200 1201 1202 1203 1204 1205 1206 1207 1208 1209 1210 1211 1212 1213 1214 1215 1216 1217 1218 1219 1220 1221 1222 1223 1224 1225 1226 1227 1228 1229 1230 1231 1232 1233 1234 1235 1236 1237 1238 1239 1240 1241 1242 1243 1244 1245 1246 1247 1248 1249 1250 1251 1252 1253 1254 1255 1256 1257 1258 1259 1260 1261 1262 1263 1264 1265 1266 1267 1268 1269 1270 1271 1272 1273 1274 1275 1276 1277 1278 1279 1280 1281 1282 1283 1284 1285 1286 1287 1288 1289 1290 1291 1292 1293 1294 1295 1296 1297 1298 1299 1300 1301 1302 1303 1304 1305 1306 1307 1308 1309 1310 1311 1312 1313 1314 1315 1316 1317 1318 1319 1320 1321 1322 1323 1324 1325 1326 1327 1328 1329 1330 1331 1332 1333 1334 1335 1336 1337 1338 1339 1340 1341 1342 1343 1344 1345 1346 1347 1348 1349 1350 1351 1352 1353 1354 1355 1356 1357 1358 1359 1360 1361 1362 1363 1364 1365 1366 1367 1368 1369 1370 1371 1372 1373 1374 1375 1376 1377 1378 1379 1380 1381 1382 1383 1384 1385 1386 1387 1388 1389 1390 1391 1392 1393 1394 1395 1396 1397 1398 1399 1400 1401 1402 1403 1404 1405 1406 1407 1408 1409 1410 1411 1412 1413 1414 1415 1416 1417 1418 1419 1420 1421 1422 1423 1424 1425 1426 1427 1428 1429 1430 1431 1432 1433 0
d 168 185 186 187 188 189 190 191 192 0
d 169 185 186 187 188 189 190 191 192 0
d 170 175 176 177 178 179 180 181 182 0
d 171 175 176 177 178 179 180 181 182 0
d 172 175 176 177 178 179 180 181 182 0
d 173 175 176 177 178 179 180 181 182 0
d 174 183 184 0
d 193 1 2 3 4 5 6 7 8 9 10 11 12 13 14 15 16 17 18 19 20 21 22 23 24 25 26 27 28 29 30 31 32 175 176 177 178 179 180 181 182 183 184 185 186 187 188 189 190 191 192 0
d 194 1 2 3 4 5 6 7 8 9 10 11 12 13 14 15 16 17 18 19 20 21 22 23 24 25 26 27 28 29 30 31 32 175 176 177 178 179 180 181 182 183 184 185 186 187 188 189 190 191 192 0
d 204 1 2 3 4 5 6 7 8 9 10 11 12 13 14 15 16 17 18 19 20 21 22 23 24 25 26 27 28 29 30 31 32 175 176 177 178 179 180 181 182 183 184 185 186 187 188 189 190 191 192 0
d 205 1 2 3 4 5 6 7 8 9 10 11 12 13 14 15 16 17 18 19 20 21 22 23 24 25 26 27 28 29 30 31 32 175 176 177 178 179 180 181 182 183 184 185 186 187 188 189 190 191 192 0
d 206 1 2 3 4 5 6 7 8 9 10 11 12 13 14 15 16 17 18 19 20 21 22 23 24 25 26 27 28 29 30 31 32 175 176 177 178 179 180 181 182 183 184 185 186 187 188 189 190 191 192 0
d 208 1 2 3 4 5 6 7 8 9 10 11 12 13 14 15 16 17 18 19 20 21 22 23 24 25 26 27 28 29 30 31 32 175 176 177 178 179 180 181 182 183 184 185 186 187 188 189 190 191 192 0
d 271 1 2 3 4 5 6 7 8 9 10 11 12 13 14 15 16 17 18 19 20 21 22 23 24 25 26 27 28 29 30 31 32 175 176 177 178 179 180 181 182 183 184 185 186 187 188 189 190 191 192 0
d 319 1 2 3 4 5 6 7 8 9 10 11 12 13 14 15 16 17 18 19 20 21 22 23 24 25 26 27 28 29 30 31 32 175 176 177 178 179 180 181 182 183 184 185 186 187 188 189 190 191 192 0
1167 -33 0
-1167 33 0
1168 -34 0
-1168 34 0
-1169 -35 0
1169 35 0
1170 -36 0
-1170 36 0
1171 -37 0
-1171 37 0
-1172 -38 0
1172 38 0
1173 -39 0
-1173 39 0
1174 -40 0
-1174 40 0
-1175 -41 0
1175 41 0
-12 -42 0
12 42 0
-1176 -43 0
1176 43 0
-11 -44 0
11 44 0
-1177 -45 0
1177 45 0
-10 -46 0
10 46 0
-1178 -47 0
1178 47 0
-9 -48 0
9 48 0
-1179 -49 0
1179 49 0
-49 -50 0
49 50 0
1180 -51 0
-1180 51 0
1182 -52 0
-1182 52 0
1184 -53 0
-1184 53 0
-1187 -54 0
1187 54 0
1188 -55 0
-1188 55 0
1189 -56 0
-1189 56 0
-1190 -57 0
1190 57 0
1191 -58 0
-1191 58 0
1192 -59 0
-1192 59 0
1193 -60 0
-1193 60 0
1194 -61 0
-1194 61 0
-1195 -62 0
1195 62 0
1196 -63 0
-1196 63 0
1197 -64 0
-1197 64 0
-1198 -65 0
1198 65 0
1199 -66 0
-1199 66 0
1200 -67 0
-1200 67 0
-1201 -68 0
1201 68 0
1202 -69 0
-1202 69 0
1203 -70 0
-1203 70 0
-1204 -71 0
1204 71 0
-8 -72 0
8 72 0
-1205 -73 0
1205 73 0
-7 -74 0
7 74 0
-1206 -75 0
1206 75 0
-6 -76 0
6 76 0
-1207 -77 0
1207 77 0
-5 -78 0
5 78 0
-1208 -79 0
1208 79 0
-79 -80 0
79 80 0
1209 -81 0
-1209 81 0
1211 -82 0
-1211 82 0
1213 -83 0
-1213 83 0
-1216 -84 0
1216 84 0
1217 -85 0
-1217 85 0
1218 -86 0
-1218 86 0
-1219 -87 0
1219 87 0
1220 -88 0
-1220 88 0
1221 -89 0
-1221 89 0
1222 -90 0
-1222 90 0
1223 -91 0
-1223 91 0
-1224 -92 0
1224 92 0
1225 -93 0
-1225 93 0
1226 -94 0
-1226 94 0
-1227 -95 0
1227 95 0
1228 -96 0
-1228 96 0
1229 -97 0
-1229 97 0
-1230 -98 0
1230 98 0
1231 -99 0
-1231 99 0
1232 -100 0
-1232 100 0
-1233 -101 0
1233 101 0
-4 -102 0
4 102 0
-1234 -103 0
1234 103 0
-3 -104 0
3 104 0
-1235 -105 0
1235 105 0
-2 -106 0
2 106 0
-1236 -107 0
1236 107 0
-1 -108 0
1 108 0
-1237 -109 0
1237 109 0
-109 -110 0
109 110 0
1238 -111 0
-1238 111 0
1240 -112 0
-1240 112 0
1242 -113 0
-1242 113 0
-1245 -114 0
1245 114 0
1246 -115 0
-1246 115 0
1247 -116 0
-1247 116 0
-1248 -117 0
1248 117 0
1249 -118 0
-1249 118 0
1250 -119 0
-1250 119 0
1251 -120 0
-1251 120 0
1252 -121 0
-1252 121 0
-1253 -122 0
1253 122 0
1254 -123 0
-1254 123 0
1255 -124 0
-1255 124 0
-1256 -125 0
1256 125 0
1257 -126 0
-1257 126 0
1258 -127 0
-1258 127 0
-1259 -128 0
1259 128 0
1260 -129 0
-1260 129 0
1261 -130 0
-1261 130 0
-1262 -131 0
1262 131 0
-16 -132 0
16 132 0
-1263 -133 0
1263 133 0
-15 -134 0
15 134 0
-1264 -135 0
1264 135 0
-14 -136 0
14 136 0
-1265 -137 0
1265 137 0
-13 -138 0
13 138 0
-1266 -139 0
1266 139 0
-139 -140 0
139 140 0
1267 -141 0
-1267 141 0
1269 -142 0
-1269 142 0
1271 -143 0
-1271 143 0
-1274 -144 0
1274 144 0
1275 -145 0
-1275 145 0
1276 -146 0
-1276 146 0
-1277 -147 0
1277 147 0
1278 -148 0
-1278 148 0
1279 -149 0
-1279 149 0
-144 -150 0
144 150 0
-1280 -151 0
1280 151 0
-54 -152 0
54 152 0
-1281 -153 0
1281 153 0
-84 -154 0
84 154 0
-1282 -155 0
1282 155 0
-114 -156 0
114 156 0
-1283 -157 0
1283 157 0
-157 -158 0
157 158 0
1284 -159 0
-1284 159 0
1286 -160 0
-1286 160 0
1288 -161 0
-1288 161 0
-1291 -162 0
1291 162 0
1292 -163 0
-1292 163 0
1293 -164 0
-1293 164 0
-1294 -165 0
1294 165 0
1295 -166 0
-1295 166 0
1296 -167 0
-1296 167 0
-1297 -195 0
1297 195 0
-8 -196 0
8 196 0
-1298 -197 0
1298 197 0
-7 -198 0
7 198 0
-1299 -199 0
1299 199 0
-6 -200 0
6 200 0
-1300 -201 0
1300 201 0
-1301 -202 0
1301 202 0
-202 -203 0
202 203 0
-1304 -207 0
1304 207 0
1305 -209 0
-1305 209 0
1306 -210 0
-1306 210 0
-1307 -211 0
1307 211 0
1225 -212 0
-1225 212 0
1226 -213 0
-1226 213 0
-1308 -214 0
1308 214 0
1228 -215 0
-1228 215 0
1229 -216 0
-1229 216 0
-1309 -217 0
1309 217 0
1231 -218 0
-1231 218 0
1232 -219 0
-1232 219 0
-1310 -220 0
1310 220 0
-4 -221 0
4 221 0
-1311 -222 0
1311 222 0
-3 -223 0
3 223 0
-1312 -224 0
1312 224 0
-2 -225 0
2 225 0
-1313 -226 0
1313 226 0
-1 -227 0
1 227 0
-1314 -228 0
1314 228 0
-228 -229 0
228 229 0
1315 -230 0
-1315 230 0
1317 -231 0
-1317 231 0
1319 -232 0
-1319 232 0
-1322 -233 0
1322 233 0
1246 -234 0
-1246 234 0
1247 -235 0
-1247 235 0
-1323 -236 0
1323 236 0
1324 -237 0
-1324 237 0
1325 -238 0
-1325 238 0
1326 -239 0
-1326 239 0
1327 -240 0
-1327 240 0
-1328 -241 0
1328 241 0
1254 -242 0
-1254 242 0
1255 -243 0
-1255 243 0
-1329 -244 0
1329 244 0
1257 -245 0
-1257 245 0
1258 -246 0
-1258 246 0
-1330 -247 0
1330 247 0
1260 -248 0
-1260 248 0
1261 -249 0
-1261 249 0
-1331 -250 0
1331 250 0
-16 -251 0
16 251 0
-1332 -252 0
1332 252 0
-15 -253 0
15 253 0
-1333 -254 0
1333 254 0
-14 -255 0
14 255 0
-1334 -256 0
1334 256 0
-13 -257 0
13 257 0
-1335 -258 0
1335 258 0
-258 -259 0
258 259 0
1336 -260 0
-1336 260 0
1338 -261 0
-1338 261 0
1340 -262 0
-1340 262 0
-1343 -263 0
1343 263 0
1275 -264 0
-1275 264 0
1276 -265 0
-1276 265 0
-1344 -266 0
1344 266 0
1345 -267 0
-1345 267 0
1346 -268 0
-1346 268 0
-263 -269 0
263 269 0
-1347 -270 0
1347 270 0
-1348 -272 0
1348 272 0
-207 -273 0
207 273 0
-1349 -274 0
1349 274 0
-233 -275 0
233 275 0
-1350 -276 0
1350 276 0
-276 -277 0
276 277 0
1351 -278 0
-1351 278 0
1353 -279 0
-1353 279 0
1355 -280 0
-1355 280 0
-1358 -281 0
1358 281 0
1359 -282 0
-1359 282 0
1360 -283 0
-1360 283 0
-1361 -284 0
1361 284 0
1362 -285 0
-1362 285 0
1363 -286 0
-1363 286 0
1167 -287 0
-1167 287 0
1168 -288 0
-1168 288 0
-1364 -289 0
1364 289 0
1173 -290 0
-1173 290 0
1174 -291 0
-1174 291 0
-1365 -292 0
1365 292 0
-12 -293 0
12 293 0
-1366 -294 0
1366 294 0
-11 -295 0
11 295 0
-1367 -296 0
1367 296 0
-10 -297 0
10 297 0
-1368 -298 0
1368 298 0
-9 -299 0
9 299 0
-1369 -300 0
1369 300 0
1188 -301 0
-1188 301 0
1189 -302 0
-1189 302 0
-1370 -303 0
1370 303 0
1373 -304 0
-1373 304 0
1376 -305 0
-1376 305 0
1379 -306 0
-1379 306 0
1381 -307 0
-1381 307 0
1384 -308 0
-1384 308 0
1387 -309 0
-1387 309 0
1390 -310 0
-1390 310 0
1393 -311 0
-1393 311 0
1396 -312 0
-1396 312 0
1399 -313 0
-1399 313 0
1402 -314 0
-1402 314 0
1405 -315 0
-1405 315 0
1408 -316 0
-1408 316 0
1411 -317 0
-1411 317 0
1414 -318 0
-1414 318 0
1417 -320 0
-1417 320 0
1420 -321 0
-1420 321 0
-1423 -322 0
1423 322 0
1426 -323 0
-1426 323 0
-1429 -324 0
1429 324 0
1433 -325 0
-1433 325 0
-33 -11 0
-33 27 0
11 -27 33 0
-34 11 0
-34 -27 0
-11 27 34 0
-33 35 0
-34 35 0
-35 33 34 0
-36 -10 0
-36 26 0
10 -26 36 0
-37 10 0
-37 -26 0
-10 26 37 0
-36 38 0
-37 38 0
-38 36 37 0
-39 -9 0
-39 25 0
9 -25 39 0
-40 9 0
-40 -25 0
-9 25 40 0
-39 41 0
-40 41 0
-41 39 40 0
-12 -42 0
12 42 0
-42 43 0
-28 43 0
-43 42 28 0
-11 -44 0
11 44 0
-44 45 0
-27 45 0
-45 44 27 0
-10 -46 0
10 46 0
-46 47 0
-26 47 0
-47 46 26 0
-9 -48 0
9 48 0
-48 49 0
-25 49 0
-49 48 25 0
-49 -50 0
49 50 0
-51 -41 0
-51 -47 0
41 47 51 0
-52 -38 0
-52 -41 0
-52 -45 0
38 41 45 52 0
-53 -35 0
-53 -38 0
-53 -41 0
-53 -43 0
35 38 41 43 53 0
-50 54 0
-51 54 0
-52 54 0
-53 54 0
-54 50 51 52 53 0
-55 -12 0
-55 28 0
12 -28 55 0
-56 12 0
-56 -28 0
-12 28 56 0
-55 57 0
-56 57 0
-57 55 56 0
-58 -57 0
-58 -35 0
-58 -38 0
-58 -41 0
57 35 38 41 58 0
-59 -54 0
-59 -58 0
54 58 59 0
-60 -54 0
-60 59 0
54 -59 60 0
-61 54 0
-61 -59 0
-54 59 61 0
-60 62 0
-61 62 0
-62 60 61 0
-63 -7 0
-63 23 0
7 -23 63 0
-64 7 0
-64 -23 0
-7 23 64 0
-63 65 0
-64 65 0
-65 63 64 0
-66 -6 0
-66 22 0
6 -22 66 0
-67 6 0
-67 -22 0
-6 22 67 0
-66 68 0
-67 68 0
-68 66 67 0
-69 -5 0
-69 21 0
5 -21 69 0
-70 5 0
-70 -21 0
-5 21 70 0
-69 71 0
-70 71 0
-71 69 70 0
-8 -72 0
8 72 0
-72 73 0
-24 73 0
-73 72 24 0
-7 -74 0
7 74 0
-74 75 0
-23 75 0
-75 74 23 0
-6 -76 0
6 76 0
-76 77 0
-22 77 0
-77 76 22 0
-5 -78 0
5 78 0
-78 79 0
-21 79 0
-79 78 21 0
-79 -80 0
79 80 0
-81 -71 0
-81 -77 0
71 77 81 0
-82 -68 0
-82 -71 0
-82 -75 0
68 71 75 82 0
-83 -65 0
-83 -68 0
-83 -71 0
-83 -73 0
65 68 71 73 83 0
-80 84 0
-81 84 0
-82 84 0
-83 84 0
-84 80 81 82 83 0
-85 -8 0
-85 24 0
8 -24 85 0
-86 8 0
-86 -24 0
-8 24 86 0
-85 87 0
-86 87 0
-87 85 86 0
-88 -87 0
-88 -65 0
-88 -68 0
-88 -71 0
87 65 68 71 88 0
-89 -84 0
-89 -88 0
84 88 89 0
-90 -84 0
-90 89 0
84 -89 90 0
-91 84 0
-91 -89 0
-84 89 91 0
-90 92 0
-91 92 0
-92 90 91 0
-93 -3 0
-93 19 0
3 -19 93 0
-94 3 0
-94 -19 0
-3 19 94 0
-93 95 0
-94 95 0
-95 93 94 0
-96 -2 0
-96 18 0
2 -18 96 0
-97 2 0
-97 -18 0
-2 18 97 0
-96 98 0
-97 98 0
-98 96 97 0
-99 -1 0
-99 17 0
1 -17 99 0
-100 1 0
-100 -17 0
-1 17 100 0
-99 101 0
-100 101 0
-101 99 100 0
-4 -102 0
4 102 0
-102 103 0
-20 103 0
-103 102 20 0
-3 -104 0
3 104 0
-104 105 0
-19 105 0
-105 104 19 0
-2 -106 0
2 106 0
-106 107 0
-18 107 0
-107 106 18 0
-1 -108 0
1 108 0
-108 109 0
-17 109 0
-109 108 17 0
-109 -110 0
109 110 0
-111 -101 0
-111 -107 0
101 107 111 0
-112 -98 0
-112 -101 0
-112 -105 0
98 101 105 112 0
-113 -95 0
-113 -98 0
-113 -101 0
-113 -103 0
95 98 101 103 113 0
-110 114 0
-111 114 0
-112 114 0
-113 114 0
-114 110 111 112 113 0
-115 -4 0
-115 20 0
4 -20 115 0
-116 4 0
-116 -20 0
-4 20 116 0
-115 117 0
-116 117 0
-117 115 116 0
-118 -117 0
-118 -95 0
-118 -98 0
-118 -101 0
117 95 98 101 118 0
-119 -114 0
-119 -118 0
114 118 119 0
-120 -114 0
-120 119 0
114 -119 120 0
-121 114 0
-121 -119 0
-114 119 121 0
-120 122 0
-121 122 0
-122 120 121 0
-123 -15 0
-123 31 0
15 -31 123 0
-124 15 0
-124 -31 0
-15 31 124 0
-123 125 0
-124 125 0
-125 123 124 0
-126 -14 0
-126 30 0
14 -30 126 0
-127 14 0
-127 -30 0
-14 30 127 0
-126 128 0
-127 128 0
-128 126 127 0
-129 -13 0
-129 29 0
13 -29 129 0
-130 13 0
-130 -29 0
-13 29 130 0
-129 131 0
-130 131 0
-131 129 130 0
-16 -132 0
16 132 0
-132 133 0
-32 133 0
-133 132 32 0
-15 -134 0
15 134 0
-134 135 0
-31 135 0
-135 134 31 0
-14 -136 0
14 136 0
-136 137 0
-30 137 0
-137 136 30 0
-13 -138 0
13 138 0
-138 139 0
-29 139 0
-139 138 29 0
-139 -140 0
139 140 0
-141 -131 0
-141 -137 0
131 137 141 0
-142 -128 0
-142 -131 0
-142 -135 0
128 131 135 142 0
-143 -125 0
-143 -128 0
-143 -131 0
-143 -133 0
125 128 131 133 143 0
-140 144 0
-141 144 0
-142 144 0
-143 144 0
-144 140 141 142 143 0
-145 -16 0
-145 32 0
16 -32 145 0
-146 16 0
-146 -32 0
-16 32 146 0
-145 147 0
-146 147 0
-147 145 146 0
-148 -147 0
-148 -125 0
-148 -128 0
-148 -131 0
147 125 128 131 148 0
-149 -144 0
-149 -148 0
144 148 149 0
-144 -150 0
144 150 0
-150 151 0
-149 151 0
-151 150 149 0
-54 -152 0
54 152 0
-152 153 0
-59 153 0
-153 152 59 0
-84 -154 0
84 154 0
-154 155 0
-89 155 0
-155 154 89 0
-114 -156 0
114 156 0
-156 157 0
-119 157 0
-157 156 119 0
-157 -158 0
157 158 0
-159 -122 0
-159 -155 0
122 155 159 0
-160 -92 0
-160 -122 0
-160 -153 0
92 122 153 160 0
-161 -62 0
-161 -92 0
-161 -122 0
-161 -151 0
62 92 122 151 161 0
-158 162 0
-159 162 0
-160 162 0
-161 162 0
-162 158 159 160 161 0
-163 -144 0
-163 149 0
144 -149 163 0
-164 144 0
-164 -149 0
-144 149 164 0
-163 165 0
-164 165 0
-165 163 164 0
-166 -165 0
-166 -62 0
-166 -92 0
-166 -122 0
165 62 92 122 166 0
-167 -162 0
-167 -166 0
162 166 167 0
-193 -169 0
-193 168 0
169 -168 193 0
-194 169 0
-194 -168 0
-169 168 194 0
-193 195 0
-194 195 0
-195 193 194 0
-8 -196 0
8 196 0
-196 197 0
-24 197 0
-197 196 24 0
-7 -198 0
7 198 0
-198 199 0
-23 199 0
-199 198 23 0
-6 -200 0
6 200 0
-200 201 0
-22 201 0
-201 200 22 0
-5 202 0
-21 202 0
-202 5 21 0
-202 -203 0
202 203 0
-204 -173 0
-204 -201 0
173 201 204 0
-205 -172 0
-205 -173 0
-205 -199 0
172 173 199 205 0
-206 -171 0
-206 -172 0
-206 -173 0
-206 -197 0
171 172 173 197 206 0
-203 207 0
-204 207 0
-205 207 0
-206 207 0
-207 203 204 205 206 0
-208 -207 0
-208 -170 0
207 170 208 0
-209 -207 0
-209 208 0
207 -208 209 0
-210 207 0
-210 -208 0
-207 208 210 0
-209 211 0
-210 211 0
-211 209 210 0
-212 -3 0
-212 19 0
3 -19 212 0
-213 3 0
-213 -19 0
-3 19 213 0
-212 214 0
-213 214 0
-214 212 213 0
-215 -2 0
-215 18 0
2 -18 215 0
-216 2 0
-216 -18 0
-2 18 216 0
-215 217 0
-216 217 0
-217 215 216 0
-218 -1 0
-218 17 0
1 -17 218 0
-219 1 0
-219 -17 0
-1 17 219 0
-218 220 0
-219 220 0
-220 218 219 0
-4 -221 0
4 221 0
-221 222 0
-20 222 0
-222 221 20 0
-3 -223 0
3 223 0
-223 224 0
-19 224 0
-224 223 19 0
-2 -225 0
2 225 0
-225 226 0
-18 226 0
-226 225 18 0
-1 -227 0
1 227 0
-227 228 0
-17 228 0
-228 227 17 0
-228 -229 0
228 229 0
-230 -220 0
-230 -226 0
220 226 230 0
-231 -217 0
-231 -220 0
-231 -224 0
217 220 224 231 0
-232 -214 0
-232 -217 0
-232 -220 0
-232 -222 0
214 217 220 222 232 0
-229 233 0
-230 233 0
-231 233 0
-232 233 0
-233 229 230 231 232 0
-234 -4 0
-234 20 0
4 -20 234 0
-235 4 0
-235 -20 0
-4 20 235 0
-234 236 0
-235 236 0
-236 234 235 0
-237 -236 0
-237 -214 0
-237 -217 0
-237 -220 0
236 214 217 220 237 0
-238 -233 0
-238 -237 0
233 237 238 0
-239 -233 0
-239 238 0
233 -238 239 0
-240 233 0
-240 -238 0
-233 238 240 0
-239 241 0
-240 241 0
-241 239 240 0
-242 -15 0
-242 31 0
15 -31 242 0
-243 15 0
-243 -31 0
-15 31 243 0
-242 244 0
-243 244 0
-244 242 243 0
-245 -14 0
-245 30 0
14 -30 245 0
-246 14 0
-246 -30 0
-14 30 246 0
-245 247 0
-246 247 0
-247 245 246 0
-248 -13 0
-248 29 0
13 -29 248 0
-249 13 0
-249 -29 0
-13 29 249 0
-248 250 0
-249 250 0
-250 248 249 0
-16 -251 0
16 251 0
-251 252 0
-32 252 0
-252 251 32 0
-15 -253 0
15 253 0
-253 254 0
-31 254 0
-254 253 31 0
-14 -255 0
14 255 0
-255 256 0
-30 256 0
-256 255 30 0
-13 -257 0
13 257 0
-257 258 0
-29 258 0
-258 257 29 0
-258 -259 0
258 259 0
-260 -250 0
-260 -256 0
250 256 260 0
-261 -247 0
-261 -250 0
-261 -254 0
247 250 254 261 0
-262 -244 0
-262 -247 0
-262 -250 0
-262 -252 0
244 247 250 252 262 0
-259 263 0
-260 263 0
-261 263 0
-262 263 0
-263 259 260 261 262 0
-264 -16 0
-264 32 0
16 -32 264 0
-265 16 0
-265 -32 0
-16 32 265 0
-264 266 0
-265 266 0
-266 264 265 0
-267 -266 0
-267 -244 0
-267 -247 0
-267 -250 0
266 244 247 250 267 0
-268 -263 0
-268 -267 0
263 267 268 0
-263 -269 0
263 269 0
-269 270 0
-268 270 0
-270 269 268 0
-169 -271 0
169 271 0
-271 272 0
-168 272 0
-272 271 168 0
-207 -273 0
207 273 0
-273 274 0
-208 274 0
-274 273 208 0
-233 -275 0
233 275 0
-275 276 0
-238 276 0
-276 275 238 0
-276 -277 0
276 277 0
-278 -241 0
-278 -274 0
241 274 278 0
-279 -211 0
-279 -241 0
-279 -272 0
211 241 272 279 0
-280 -195 0
-280 -211 0
-280 -241 0
-280 -270 0
195 211 241 270 280 0
-277 281 0
-278 281 0
-279 281 0
-280 281 0
-281 277 278 279 280 0
-282 -263 0
-282 268 0
263 -268 282 0
-283 263 0
-283 -268 0
-263 268 283 0
-282 284 0
-283 284 0
-284 282 283 0
-285 -284 0
-285 -195 0
-285 -211 0
-285 -241 0
284 195 211 241 285 0
-286 -281 0
-286 -285 0
281 285 286 0
-287 -11 0
-287 27 0
11 -27 287 0
-288 11 0
-288 -27 0
-11 27 288 0
-287 289 0
-288 289 0
-289 287 288 0
-290 -9 0
-290 25 0
9 -25 290 0
-291 9 0
-291 -25 0
-9 25 291 0
-290 292 0
-291 292 0
-292 290 291 0
-12 -293 0
12 293 0
-293 294 0
-28 294 0
-294 293 28 0
-11 -295 0
11 295 0
-295 296 0
-27 296 0
-296 295 27 0
-10 -297 0
10 297 0
-297 298 0
-26 298 0
-298 297 26 0
-9 -299 0
9 299 0
-299 300 0
-25 300 0
-300 299 25 0
-301 -12 0
-301 28 0
12 -28 301 0
-302 12 0
-302 -28 0
-12 28 302 0
-301 303 0
-302 303 0
-303 301 302 0
-304 -167 286 0
-304 167 -286 0
304 -167 -286 0
304 167 286 0
-305 -166 285 0
-305 166 -285 0
305 -166 -285 0
305 166 285 0
-306 -162 281 0
-306 162 -281 0
306 -162 -281 0
306 162 281 0
-304 -305 -306 307 0
-307 304 0
-307 305 0
-307 306 0
-8 -175 -308 0
-8 175 308 0
8 -175 308 0
8 175 -308 0
-24 -176 -309 0
-24 176 309 0
24 -176 309 0
24 176 -309 0
-7 -177 -310 0
-7 177 310 0
7 -177 310 0
7 177 -310 0
-23 -178 -311 0
-23 178 311 0
23 -178 311 0
23 178 -311 0
-6 -179 -312 0
-6 179 312 0
6 -179 312 0
6 179 -312 0
-22 -180 -313 0
-22 180 313 0
22 -180 313 0
22 180 -313 0
-5 -181 -314 0
-5 181 314 0
5 -181 314 0
5 181 -314 0
-21 -182 -315 0
-21 182 315 0
21 -182 315 0
21 182 -315 0
-10 -183 -316 0
-10 183 316 0
10 -183 316 0
10 183 -316 0
-26 -184 -317 0
-26 184 317 0
26 -184 317 0
26 184 -317 0
-289 -185 -318 0
-289 185 318 0
289 -185 318 0
289 185 -318 0
-174 -186 -319 0
-174 186 319 0
174 -186 319 0
174 186 -319 0
-292 -187 -320 0
-292 187 320 0
292 -187 320 0
292 187 -320 0
-294 -188 -321 0
-294 188 321 0
294 -188 321 0
294 188 -321 0
-296 -189 -322 0
-296 189 322 0
296 -189 322 0
296 189 -322 0
-298 -190 -323 0
-298 190 323 0
298 -190 323 0
298 190 -323 0
-300 -191 -324 0
-300 191 324 0
300 -191 324 0
300 191 -324 0
-303 -192 -325 0
-303 192 325 0
303 -192 325 0
303 192 -325 0
308 309 310 311 312 313 314 315 316 317 318 319 320 321 322 323 324 325 307 0
-11 -1167 0
27 -1167 0
11 -27 1167 0
11 -1168 0
-27 -1168 0
-11 27 1168 0
-33 -1169 0
-34 -1169 0
33 34 1169 0
-10 -1170 0
26 -1170 0
10 -26 1170 0
10 -1171 0
-26 -1171 0
-10 26 1171 0
-36 -1172 0
-37 -1172 0
36 37 1172 0
-9 -1173 0
25 -1173 0
9 -25 1173 0
9 -1174 0
-25 -1174 0
-9 25 1174 0
-39 -1175 0
-40 -1175 0
39 40 1175 0
-28 -1176 0
-42 -1176 0
28 42 1176 0
-27 -1177 0
-44 -1177 0
27 44 1177 0
-26 -1178 0
-46 -1178 0
26 46 1178 0
-25 -1179 0
-48 -1179 0
25 48 1179 0
-41 -1180 0
-47 -1180 0
41 47 1180 0
-38 -1181 0
-41 -1181 0
38 41 1181 0
-45 -1182 0
1181 -1182 0
45 -1181 1182 0
-35 -1183 0
1181 -1183 0
35 -1181 1183 0
-43 -1184 0
1183 -1184 0
43 -1183 1184 0
-50 -1185 0
-51 -1185 0
50 51 1185 0
-52 -1186 0
-53 -1186 0
52 53 1186 0
1185 -1187 0
1186 -1187 0
-1185 -1186 1187 0
-12 -1188 0
28 -1188 0
12 -28 1188 0
12 -1189 0
-28 -1189 0
-12 28 1189 0
-55 -1190 0
-56 -1190 0
55 56 1190 0
-57 -1191 0
1183 -1191 0
57 -1183 1191 0
-54 -1192 0
-58 -1192 0
54 58 1192 0
-54 -1193 0
59 -1193 0
54 -59 1193 0
54 -1194 0
-59 -1194 0
-54 59 1194 0
-60 -1195 0
-61 -1195 0
60 61 1195 0
-7 -1196 0
23 -1196 0
7 -23 1196 0
7 -1197 0
-23 -1197 0
-7 23 1197 0
-63 -1198 0
-64 -1198 0
63 64 1198 0
-6 -1199 0
22 -1199 0
6 -22 1199 0
6 -1200 0
-22 -1200 0
-6 22 1200 0
-66 -1201 0
-67 -1201 0
66 67 1201 0
-5 -1202 0
21 -1202 0
5 -21 1202 0
5 -1203 0
-21 -1203 0
-5 21 1203 0
-69 -1204 0
-70 -1204 0
69 70 1204 0
-24 -1205 0
-72 -1205 0
24 72 1205 0
-23 -1206 0
-74 -1206 0
23 74 1206 0
-22 -1207 0
-76 -1207 0
22 76 1207 0
-21 -1208 0
-78 -1208 0
21 78 1208 0
-71 -1209 0
-77 -1209 0
71 77 1209 0
-68 -1210 0
-71 -1210 0
68 71 1210 0
-75 -1211 0
1210 -1211 0
75 -1210 1211 0
-65 -1212 0
1210 -1212 0
65 -1210 1212 0
-73 -1213 0
1212 -1213 0
73 -1212 1213 0
-80 -1214 0
-81 -1214 0
80 81 1214 0
-82 -1215 0
-83 -1215 0
82 83 1215 0
1214 -1216 0
1215 -1216 0
-1214 -1215 1216 0
-8 -1217 0
24 -1217 0
8 -24 1217 0
8 -1218 0
-24 -1218 0
-8 24 1218 0
-85 -1219 0
-86 -1219 0
85 86 1219 0
-87 -1220 0
1212 -1220 0
87 -1212 1220 0
-84 -1221 0
-88 -1221 0
84 88 1221 0
-84 -1222 0
89 -1222 0
84 -89 1222 0
84 -1223 0
-89 -1223 0
-84 89 1223 0
-90 -1224 0
-91 -1224 0
90 91 1224 0
-3 -1225 0
19 -1225 0
3 -19 1225 0
3 -1226 0
-19 -1226 0
-3 19 1226 0
-93 -1227 0
-94 -1227 0
93 94 1227 0
-2 -1228 0
18 -1228 0
2 -18 1228 0
2 -1229 0
-18 -1229 0
-2 18 1229 0
-96 -1230 0
-97 -1230 0
96 97 1230 0
-1 -1231 0
17 -1231 0
1 -17 1231 0
1 -1232 0
-17 -1232 0
-1 17 1232 0
-99 -1233 0
-100 -1233 0
99 100 1233 0
-20 -1234 0
-102 -1234 0
20 102 1234 0
-19 -1235 0
-104 -1235 0
19 104 1235 0
-18 -1236 0
-106 -1236 0
18 106 1236 0
-17 -1237 0
-108 -1237 0
17 108 1237 0
-101 -1238 0
-107 -1238 0
101 107 1238 0
-98 -1239 0
-101 -1239 0
98 101 1239 0
-105 -1240 0
1239 -1240 0
105 -1239 1240 0
-95 -1241 0
1239 -1241 0
95 -1239 1241 0
-103 -1242 0
1241 -1242 0
103 -1241 1242 0
-110 -1243 0
-111 -1243 0
110 111 1243 0
-112 -1244 0
-113 -1244 0
112 113 1244 0
1243 -1245 0
1244 -1245 0
-1243 -1244 1245 0
-4 -1246 0
20 -1246 0
4 -20 1246 0
4 -1247 0
-20 -1247 0
-4 20 1247 0
-115 -1248 0
-116 -1248 0
115 116 1248 0
-117 -1249 0
1241 -1249 0
117 -1241 1249 0
-114 -1250 0
-118 -1250 0
114 118 1250 0
-114 -1251 0
119 -1251 0
114 -119 1251 0
114 -1252 0
-119 -1252 0
-114 119 1252 0
-120 -1253 0
-121 -1253 0
120 121 1253 0
-15 -1254 0
31 -1254 0
15 -31 1254 0
15 -1255 0
-31 -1255 0
-15 31 1255 0
-123 -1256 0
-124 -1256 0
123 124 1256 0
-14 -1257 0
30 -1257 0
14 -30 1257 0
14 -1258 0
-30 -1258 0
-14 30 1258 0
-126 -1259 0
-127 -1259 0
126 127 1259 0
-13 -1260 0
29 -1260 0
13 -29 1260 0
13 -1261 0
-29 -1261 0
-13 29 1261 0
-129 -1262 0
-130 -1262 0
129 130 1262 0
-32 -1263 0
-132 -1263 0
32 132 1263 0
-31 -1264 0
-134 -1264 0
31 134 1264 0
-30 -1265 0
-136 -1265 0
30 136 1265 0
-29 -1266 0
-138 -1266 0
29 138 1266 0
-131 -1267 0
-137 -1267 0
131 137 1267 0
-128 -1268 0
-131 -1268 0
128 131 1268 0
-135 -1269 0
1268 -1269 0
135 -1268 1269 0
-125 -1270 0
1268 -1270 0
125 -1268 1270 0
-133 -1271 0
1270 -1271 0
133 -1270 1271 0
-140 -1272 0
-141 -1272 0
140 141 1272 0
-142 -1273 0
-143 -1273 0
142 143 1273 0
1272 -1274 0
1273 -1274 0
-1272 -1273 1274 0
-16 -1275 0
32 -1275 0
16 -32 1275 0
16 -1276 0
-32 -1276 0
-16 32 1276 0
-145 -1277 0
-146 -1277 0
145 146 1277 0
-147 -1278 0
1270 -1278 0
147 -1270 1278 0
-144 -1279 0
-148 -1279 0
144 148 1279 0
-149 -1280 0
-150 -1280 0
149 150 1280 0
-59 -1281 0
-152 -1281 0
59 152 1281 0
-89 -1282 0
-154 -1282 0
89 154 1282 0
-119 -1283 0
-156 -1283 0
119 156 1283 0
-122 -1284 0
-155 -1284 0
122 155 1284 0
-92 -1285 0
-122 -1285 0
92 122 1285 0
-153 -1286 0
1285 -1286 0
153 -1285 1286 0
-62 -1287 0
1285 -1287 0
62 -1285 1287 0
-151 -1288 0
1287 -1288 0
151 -1287 1288 0
-158 -1289 0
-159 -1289 0
158 159 1289 0
-160 -1290 0
-161 -1290 0
160 161 1290 0
1289 -1291 0
1290 -1291 0
-1289 -1290 1291 0
-144 -1292 0
149 -1292 0
144 -149 1292 0
144 -1293 0
-149 -1293 0
-144 149 1293 0
-163 -1294 0
-164 -1294 0
163 164 1294 0
-165 -1295 0
1287 -1295 0
165 -1287 1295 0
-162 -1296 0
-166 -1296 0
162 166 1296 0
-193 -1297 0
-194 -1297 0
193 194 1297 0
-24 -1298 0
-196 -1298 0
24 196 1298 0
-23 -1299 0
-198 -1299 0
23 198 1299 0
-22 -1300 0
-200 -1300 0
22 200 1300 0
-5 -1301 0
-21 -1301 0
5 21 1301 0
-203 -1302 0
-204 -1302 0
203 204 1302 0
-205 -1303 0
-206 -1303 0
205 206 1303 0
1302 -1304 0
1303 -1304 0
-1302 -1303 1304 0
-207 -1305 0
208 -1305 0
207 -208 1305 0
207 -1306 0
-208 -1306 0
-207 208 1306 0
-209 -1307 0
-210 -1307 0
209 210 1307 0
-212 -1308 0
-213 -1308 0
212 213 1308 0
-215 -1309 0
-216 -1309 0
215 216 1309 0
-218 -1310 0
-219 -1310 0
218 219 1310 0
-20 -1311 0
-221 -1311 0
20 221 1311 0
-19 -1312 0
-223 -1312 0
19 223 1312 0
-18 -1313 0
-225 -1313 0
18 225 1313 0
-17 -1314 0
-227 -1314 0
17 227 1314 0
-220 -1315 0
-226 -1315 0
220 226 1315 0
-217 -1316 0
-220 -1316 0
217 220 1316 0
-224 -1317 0
1316 -1317 0
224 -1316 1317 0
-214 -1318 0
1316 -1318 0
214 -1316 1318 0
-222 -1319 0
1318 -1319 0
222 -1318 1319 0
-229 -1320 0
-230 -1320 0
229 230 1320 0
-231 -1321 0
-232 -1321 0
231 232 1321 0
1320 -1322 0
1321 -1322 0
-1320 -1321 1322 0
-234 -1323 0
-235 -1323 0
234 235 1323 0
-236 -1324 0
1318 -1324 0
236 -1318 1324 0
-233 -1325 0
-237 -1325 0
233 237 1325 0
-233 -1326 0
238 -1326 0
233 -238 1326 0
233 -1327 0
-238 -1327 0
-233 238 1327 0
-239 -1328 0
-240 -1328 0
239 240 1328 0
-242 -1329 0
-243 -1329 0
242 243 1329 0
-245 -1330 0
-246 -1330 0
245 246 1330 0
-248 -1331 0
-249 -1331 0
248 249 1331 0
-32 -1332 0
-251 -1332 0
32 251 1332 0
-31 -1333 0
-253 -1333 0
31 253 1333 0
-30 -1334 0
-255 -1334 0
30 255 1334 0
-29 -1335 0
-257 -1335 0
29 257 1335 0
-250 -1336 0
-256 -1336 0
250 256 1336 0
-247 -1337 0
-250 -1337 0
247 250 1337 0
-254 -1338 0
1337 -1338 0
254 -1337 1338 0
-244 -1339 0
1337 -1339 0
244 -1337 1339 0
-252 -1340 0
1339 -1340 0
252 -1339 1340 0
-259 -1341 0
-260 -1341 0
259 260 1341 0
-261 -1342 0
-262 -1342 0
261 262 1342 0
1341 -1343 0
1342 -1343 0
-1341 -1342 1343 0
-264 -1344 0
-265 -1344 0
264 265 1344 0
-266 -1345 0
1339 -1345 0
266 -1339 1345 0
-263 -1346 0
-267 -1346 0
263 267 1346 0
-268 -1347 0
-269 -1347 0
268 269 1347 0
194 -1348 0
-271 -1348 0
-194 271 1348 0
-208 -1349 0
-273 -1349 0
208 273 1349 0
-238 -1350 0
-275 -1350 0
238 275 1350 0
-241 -1351 0
-274 -1351 0
241 274 1351 0
-211 -1352 0
-241 -1352 0
211 241 1352 0
-272 -1353 0
1352 -1353 0
272 -1352 1353 0
-195 -1354 0
1352 -1354 0
195 -1352 1354 0
-270 -1355 0
1354 -1355 0
270 -1354 1355 0
-277 -1356 0
-278 -1356 0
277 278 1356 0
-279 -1357 0
-280 -1357 0
279 280 1357 0
1356 -1358 0
1357 -1358 0
-1356 -1357 1358 0
-263 -1359 0
268 -1359 0
263 -268 1359 0
263 -1360 0
-268 -1360 0
-263 268 1360 0
-282 -1361 0
-283 -1361 0
282 283 1361 0
-284 -1362 0
1354 -1362 0
284 -1354 1362 0
-281 -1363 0
-285 -1363 0
281 285 1363 0
-287 -1364 0
-288 -1364 0
287 288 1364 0
-290 -1365 0
-291 -1365 0
290 291 1365 0
-28 -1366 0
-293 -1366 0
28 293 1366 0
-27 -1367 0
-295 -1367 0
27 295 1367 0
-26 -1368 0
-297 -1368 0
26 297 1368 0
-25 -1369 0
-299 -1369 0
25 299 1369 0
-301 -1370 0
-302 -1370 0
301 302 1370 0
167 -1371 0
-286 -1371 0
-167 286 1371 0
-167 -1372 0
286 -1372 0
167 -286 1372 0
-1371 -1373 0
-1372 -1373 0
1371 1372 1373 0
166 -1374 0
-285 -1374 0
-166 285 1374 0
-166 -1375 0
285 -1375 0
166 -285 1375 0
-1374 -1376 0
-1375 -1376 0
1374 1375 1376 0
162 -1377 0
-281 -1377 0
-162 281 1377 0
-162 -1378 0
281 -1378 0
162 -281 1378 0
-1377 -1379 0
-1378 -1379 0
1377 1378 1379 0
304 -1380 0
305 -1380 0
-304 -305 1380 0
306 -1381 0
1380 -1381 0
-306 -1380 1381 0
-8 -1382 0
-175 -1382 0
8 175 1382 0
8 -1383 0
175 -1383 0
-8 -175 1383 0
-1382 -1384 0
-1383 -1384 0
1382 1383 1384 0
-24 -1385 0
-176 -1385 0
24 176 1385 0
24 -1386 0
176 -1386 0
-24 -176 1386 0
-1385 -1387 0
-1386 -1387 0
1385 1386 1387 0
-7 -1388 0
-177 -1388 0
7 177 1388 0
7 -1389 0
177 -1389 0
-7 -177 1389 0
-1388 -1390 0
-1389 -1390 0
1388 1389 1390 0
-23 -1391 0
-178 -1391 0
23 178 1391 0
23 -1392 0
178 -1392 0
-23 -178 1392 0
-1391 -1393 0
-1392 -1393 0
1391 1392 1393 0
-6 -1394 0
-179 -1394 0
6 179 1394 0
6 -1395 0
179 -1395 0
-6 -179 1395 0
-1394 -1396 0
-1395 -1396 0
1394 1395 1396 0
-22 -1397 0
-180 -1397 0
22 180 1397 0
22 -1398 0
180 -1398 0
-22 -180 1398 0
-1397 -1399 0
-1398 -1399 0
1397 1398 1399 0
-5 -1400 0
-181 -1400 0
5 181 1400 0
5 -1401 0
181 -1401 0
-5 -181 1401 0
-1400 -1402 0
-1401 -1402 0
1400 1401 1402 0
-21 -1403 0
-182 -1403 0
21 182 1403 0
21 -1404 0
182 -1404 0
-21 -182 1404 0
-1403 -1405 0
-1404 -1405 0
1403 1404 1405 0
-10 -1406 0
-183 -1406 0
10 183 1406 0
10 -1407 0
183 -1407 0
-10 -183 1407 0
-1406 -1408 0
-1407 -1408 0
1406 1407 1408 0
-26 -1409 0
-184 -1409 0
26 184 1409 0
26 -1410 0
184 -1410 0
-26 -184 1410 0
-1409 -1411 0
-1410 -1411 0
1409 1410 1411 0
-185 -1412 0
-289 -1412 0
185 289 1412 0
185 -1413 0
289 -1413 0
-185 -289 1413 0
-1412 -1414 0
-1413 -1414 0
1412 1413 1414 0
-187 -1415 0
-292 -1415 0
187 292 1415 0
187 -1416 0
292 -1416 0
-187 -292 1416 0
-1415 -1417 0
-1416 -1417 0
1415 1416 1417 0
-188 -1418 0
-294 -1418 0
188 294 1418 0
188 -1419 0
294 -1419 0
-188 -294 1419 0
-1418 -1420 0
-1419 -1420 0
1418 1419 1420 0
-189 -1421 0
-1168 -1421 0
189 1168 1421 0
189 -1422 0
1168 -1422 0
-189 -1168 1422 0
-1421 -1423 0
-1422 -1423 0
1421 1422 1423 0
-190 -1424 0
-298 -1424 0
190 298 1424 0
190 -1425 0
298 -1425 0
-190 -298 1425 0
-1424 -1426 0
-1425 -1426 0
1424 1425 1426 0
-191 -1427 0
-1174 -1427 0
191 1174 1427 0
191 -1428 0
1174 -1428 0
-191 -1174 1428 0
-1427 -1429 0
-1428 -1429 0
1427 1428 1429 0
-1188 -1430 0
-1189 -1430 0
1188 1189 1430 0
192 -1431 0
-1430 -1431 0
-192 1430 1431 0
-192 -1432 0
1430 -1432 0
192 -1430 1432 0
-1431 -1433 0
-1432 -1433 0
1431 1432 1433 0
